(set-logic QF_S)
(declare-fun _var_0xINPUT_155951_() String)
(declare-fun __woorpje_diseq_pref0_() String)
(declare-fun __woorpje_diseq_suf_l0_() String)
(declare-fun __woorpje_diseq_suf_r0_() String)
(assert (=(str.++ _var_0xINPUT_155951_  "")(str.++ __woorpje_diseq_pref0_  "N" __woorpje_diseq_suf_l0_  "")) )
(assert (=(str.++  "F5YCNBGNBG" "")(str.++ __woorpje_diseq_pref0_  "G" __woorpje_diseq_suf_r0_  "")) )
(check-sat)
